files/upTests/__failed/underscores/0001.eprime
language ESSENCE' 1.0

given n_colours: int(1..30)
given n_orders: int(1..30)
find col_per_slab: int(1..30)
given n_orderSize: int(1..30)
given sizes_size: int(1..)
find ordSize_Function1D:
        matrix indexed by [int(1..n_orders)] of int(1..n_orderSize)
find ordCol_Function1D:
        matrix indexed by [int(1..n_orders)] of int(1..n_colours)
such that true
