files/upTests/__failed/underscores/0001.eprime.solution
language ESSENCE' 1.0
letting col_per_slab be 27
letting ordCol_Function1D be [5, 5, 2, 1, 1, 3, 5, 4, 5, 5, 5, 1, 1, 1, 1, 2, 5, 2, 4, 1;int(1..20)]
letting ordSize_Function1D be [16, 14, 1, 10, 2, 4, 18, 15, 11, 4, 7, 14, 17, 8, 3, 11, 6, 19, 15, 10;int(1..20)]
